NAME: st70-16-0
TYPE: TSP
COMMENT: min_cost = 344.65
DIMENSION: 16
EDGE_WEIGHT_TYPE: EUC_2D
NODE_COORD_SECTION
1 83 86
2 17 82
3 57 91
4 62 1
5 20 18
6 56 63
7 25 76
8 78 94
9 29 60
10 72 42
11 10 55
12 48 82
13 74 67
14 37 64
15 48 83
16 6 8
EOF
